Total weight: 1207.607062651251
Route 1: 0 89 92 37 98 85 61 5 60 83 18 31 69 1 27 28 50 76 12 26 40 100 59 99 87 6 96 94 95 97 13 93 17 86 16 91 38 44 58 0 
Route 2: 0 30 20 65 66 32 64 49 33 81 53 84 8 48 88 74 75 56 55 68 51 70 3 77 80 0 
Route 3: 0 21 72 73 2 57 42 14 43 15 39 67 23 41 22 79 78 9 71 35 34 29 24 54 4 25 0 
Route 4: 0 52 7 82 45 46 36 47 19 62 11 63 90 10 0 
